NAME: sim-grid-A-35
TYPE: TSP
COMMENT: Semi-regular Grid
DIMENSION: 35
EDGE_WEIGHT_TYPE: EUC_2D
NODE_COORD_SECTION
1 300 100
2 500 100
3 700 100
4 1300 100
5 1500 100
6 300 200
7 1300 200
8 1500 200
9 100 400
10 250 400
11 400 400
12 850 400
13 1000 400
14 1300 400
15 1450 400
16 100 500
17 250 500
18 400 500
19 550 500
20 700 500
21 1000 500
22 1150 500
23 1300 500
24 1450 500
25 250 700
26 450 700
27 800 700
28 950 700
29 1300 700
30 100 800
31 450 800
32 950 800
33 1150 800
34 1300 800
35 1500 800
EOF
